c generated by sgen
p cnf 85 180
-2 -3 -4 0
-1 -3 -4 0
-1 -2 -4 0
-1 -2 -3 0
-6 -7 -8 0
-5 -7 -8 0
-5 -6 -8 0
-5 -6 -7 0
-10 -11 -12 0
-9 -11 -12 0
-9 -10 -12 0
-9 -10 -11 0
-14 -15 -16 0
-13 -15 -16 0
-13 -14 -16 0
-13 -14 -15 0
-18 -19 -20 0
-17 -19 -20 0
-17 -18 -20 0
-17 -18 -19 0
-22 -23 -24 0
-21 -23 -24 0
-21 -22 -24 0
-21 -22 -23 0
-26 -27 -28 0
-25 -27 -28 0
-25 -26 -28 0
-25 -26 -27 0
-30 -31 -32 0
-29 -31 -32 0
-29 -30 -32 0
-29 -30 -31 0
-34 -35 -36 0
-33 -35 -36 0
-33 -34 -36 0
-33 -34 -35 0
-38 -39 -40 0
-37 -39 -40 0
-37 -38 -40 0
-37 -38 -39 0
-42 -43 -44 0
-41 -43 -44 0
-41 -42 -44 0
-41 -42 -43 0
-46 -47 -48 0
-45 -47 -48 0
-45 -46 -48 0
-45 -46 -47 0
-50 -51 -52 0
-49 -51 -52 0
-49 -50 -52 0
-49 -50 -51 0
-54 -55 -56 0
-53 -55 -56 0
-53 -54 -56 0
-53 -54 -55 0
-58 -59 -60 0
-57 -59 -60 0
-57 -58 -60 0
-57 -58 -59 0
-62 -63 -64 0
-61 -63 -64 0
-61 -62 -64 0
-61 -62 -63 0
-66 -67 -68 0
-65 -67 -68 0
-65 -66 -68 0
-65 -66 -67 0
-70 -71 -72 0
-69 -71 -72 0
-69 -70 -72 0
-69 -70 -71 0
-74 -75 -76 0
-73 -75 -76 0
-73 -74 -76 0
-73 -74 -75 0
-78 -79 -80 0
-77 -79 -80 0
-77 -78 -80 0
-77 -78 -79 0
-81 -82 -83 0
-81 -82 -84 0
-81 -82 -85 0
-81 -83 -84 0
-81 -83 -85 0
-81 -84 -85 0
-82 -83 -84 0
-82 -83 -85 0
-82 -84 -85 0
-83 -84 -85 0
63 65 46 0
41 65 46 0
41 63 46 0
41 63 65 0
31 14 74 0
53 14 74 0
53 31 74 0
53 31 14 0
1 24 73 0
67 24 73 0
67 1 73 0
67 1 24 0
27 3 59 0
15 3 59 0
15 27 59 0
15 27 3 0
36 18 80 0
22 18 80 0
22 36 80 0
22 36 18 0
29 57 79 0
52 57 79 0
52 29 79 0
52 29 57 0
32 28 8 0
82 28 8 0
82 32 8 0
82 32 28 0
13 12 85 0
62 12 85 0
62 13 85 0
62 13 12 0
20 9 51 0
7 9 51 0
7 20 51 0
7 20 9 0
55 30 47 0
17 30 47 0
17 55 47 0
17 55 30 0
35 66 16 0
71 66 16 0
71 35 16 0
71 35 66 0
68 58 10 0
37 58 10 0
37 68 10 0
37 68 58 0
39 49 61 0
23 49 61 0
23 39 61 0
23 39 49 0
34 40 84 0
4 40 84 0
4 34 84 0
4 34 40 0
64 26 69 0
56 26 69 0
56 64 69 0
56 64 26 0
25 77 43 0
11 77 43 0
11 25 43 0
11 25 77 0
54 38 42 0
5 38 42 0
5 54 42 0
5 54 38 0
72 2 78 0
6 2 78 0
6 72 78 0
6 72 2 0
81 75 19 0
44 75 19 0
44 81 19 0
44 81 75 0
48 76 33 0
50 76 33 0
50 48 33 0
50 48 76 0
83 45 60 0
83 45 21 0
83 45 70 0
83 60 21 0
83 60 70 0
83 21 70 0
45 60 21 0
45 60 70 0
45 21 70 0
60 21 70 0
